TYPE : Vertex Cover
DIMENSION: 25
EDGE_DATA_SECTION:
0 7
0 8
0 11
0 12
0 13
0 20
0 22
1 5
1 7
1 14
1 20
2 6
2 9
2 11
2 16
2 17
3 8
3 9
3 12
3 18
3 20
4 18
4 23
5 6
5 9
5 17
5 20
5 22
5 23
6 10
6 20
6 22
7 9
7 13
7 17
7 18
7 24
8 10
8 13
8 15
8 19
8 23
9 18
9 21
9 22
10 15
10 16
11 19
12 13
12 15
12 19
12 23
13 15
13 17
13 22
13 24
14 16
14 18
14 19
14 21
15 21
15 22
16 18
16 23
16 24
17 18
17 20
17 23
18 20
18 21
18 22
19 22
19 24
20 22
21 23
22 23
-1
VERTEX_DEGREE:
7.0 4.0 5.0 5.0 2.0 7.0 5.0 7.0 7.0 7.0 4.0 3.0 6.0 8.0 5.0 6.0 6.0 7.0 10.0 6.0 8.0 5.0 10.0 8.0 4.0
VERTEX_COVER:
0 2 3 5 6 7 8 9 13 14 15 16 18 19 20 23
EOF
